(set-info :smt-lib-version 2.6)
(set-logic QF_UF)
(set-info :category "crafted")
(set-info :status sat)
(declare-sort S1 0)
(declare-fun f (S1) S1)
(declare-fun a () S1)
(assert (let ((t1 (f a )) (t2 (f t1 )) (t3 (f t2 ))) (and (= t3 t1) (= t2 a) (not (= t1 a)))))
(check-sat)
(exit)
